************************************************************************
file with basedata            : md346_.bas
initial value random generator: 1464476030
************************************************************************
projects                      :  1
jobs (incl. supersource/sink ):  22
horizon                       :  154
RESOURCES
  - renewable                 :  2   R
  - nonrenewable              :  2   N
  - doubly constrained        :  0   D
************************************************************************
PROJECT INFORMATION:
pronr.  #jobs rel.date duedate tardcost  MPM-Time
    1     20      0       21        9       21
************************************************************************
PRECEDENCE RELATIONS:
jobnr.    #modes  #successors   successors
   1        1          3           2   3   4
   2        3          3           8  13  17
   3        3          2          15  20
   4        3          2           5  18
   5        3          3           6   7  12
   6        3          3          13  14  17
   7        3          2          11  14
   8        3          3           9  10  12
   9        3          1          16
  10        3          3          14  18  21
  11        3          3          13  15  17
  12        3          2          15  19
  13        3          1          19
  14        3          1          20
  15        3          1          21
  16        3          2          18  21
  17        3          1          20
  18        3          1          19
  19        3          1          22
  20        3          1          22
  21        3          1          22
  22        1          0        
************************************************************************
REQUESTS/DURATIONS:
jobnr. mode duration  R 1  R 2  N 1  N 2
------------------------------------------------------------------------
  1      1     0       0    0    0    0
  2      1     5       6    0    0    7
         2     6       0    5    0    5
         3     7       4    0    0    1
  3      1     2       0    7    8    0
         2     2       0    6    0   10
         3     5       8    0    0    7
  4      1     2       0    3    0    7
         2     3       5    0    6    0
         3     6       3    0    4    0
  5      1     4       4    0    0    7
         2     5       4    0    0    6
         3     7       3    0    7    0
  6      1     3       0    5    0    6
         2     6       0    5    0    5
         3    10       0    4    2    0
  7      1     1       0    6    0    6
         2     7       0    5    6    0
         3     9       0    2    6    0
  8      1     3       5    0    0    9
         2     3       6    0    0    8
         3     7       0    2    0    6
  9      1     4       0    7   10    0
         2     4       0    8    0    2
         3     6       8    0   10    0
 10      1     2       7    0    0    9
         2     5       6    0    0    9
         3     5       0    5    3    0
 11      1     3      10    0    4    0
         2     4       9    0    0    7
         3     9       9    0    3    0
 12      1     4       9    0    6    0
         2     5       0    7    6    0
         3     8       0    7    0    5
 13      1     2       9    0    9    0
         2     7       8    0    0    6
         3     7       0    2    9    0
 14      1     6      10    0    8    0
         2     9       9    0    6    0
         3     9       0    9    0    5
 15      1     2       8    0    0    3
         2    10       0    5    0    3
         3    10       7    0    5    0
 16      1     2       6    0    9    0
         2     3       4    0    0    5
         3     6       0    2    8    0
 17      1     2       0   10    6    0
         2     7       1    0    0    4
         3     9       0    7    4    0
 18      1     6       9    0    0    7
         2     9       0    5    0    7
         3     9       8    0    6    0
 19      1     1       6    0    9    0
         2     7       5    0    0    7
         3     9       5    0    0    2
 20      1     5       0    9    6    0
         2     6       0    9    0    4
         3    10       0    8    6    0
 21      1     4       1    0    0    6
         2     4       0    4    0    5
         3     6       0    3    0    2
 22      1     0       0    0    0    0
************************************************************************
RESOURCEAVAILABILITIES:
  R 1  R 2  N 1  N 2
   23   15  110  122
************************************************************************
MAXIMAL LAGS:
from  to  type  delay
    1   12   ES      0
    1    2   ES      0
    2   12   ES      0
    1    3   ES      0
    3   12   ES      0
    1    4   ES      0
    4   12   ES      0
    1    5   ES      0
    5   12   ES      0
    1    6   ES      0
    6   12   ES      0
    1    7   ES      0
    7   12   ES      0
    1    8   ES      0
    8   12   ES      0
    1    9   ES      0
    9   12   ES      0
    1   10   ES      0
   10   12   ES      0
    1   11   ES      0
   11   12   ES      0
    1   12   ES      0
    2    8   SS     -4
    2    8   SE     -5
    8    2   SE      0
    2    8   ES      0
    2    8   EE     -1
    2   13   SS      8
    2   13   SE     -2
    2   13   ES    -10
    2   13   EE     -1
    2   17   SS     11
    2   17   SE      4
    2   17   ES     -4
    2   17   EE      4
    3   15   SS     -8
    3   15   SE      0
    3   15   ES      0
    3   15   EE      6
    3   20   SS     -9
    3   20   SE     -5
    3   20   ES      1
    3   20   EE     -8
    4    5   SS     -4
    4    5   SE      4
    4    5   ES     -5
    4    5   EE     -2
    4   18   SS     -1
    4   18   SE      9
    4   18   ES    -11
    4   18   EE     -1
    5    6   SS     -3
    5    6   SE     -7
    5    6   ES      6
    5    6   EE      0
    5    7   SS     11
    5    7   SE    -11
    5    7   ES      5
    5    7   EE     10
    6   13   SS    -11
    6   13   SE      8
    6   13   ES      3
    6   13   EE    -11
    6   14   SS      1
    6   14   SE     -6
    6   14   ES     -5
    6   14   EE      1
    6   17   SS      7
    6   17   SE      7
    6   17   ES      5
    6   17   EE      2
    7   11   SS      7
    7   11   SE     -1
    7   11   ES    -12
    7   11   EE     12
    7   14   SS      7
    7   14   SE     12
    7   14   ES      8
    7   14   EE      4
    8    9   SS     -7
    8    9   SE     -8
    8    9   ES    -10
    8    9   EE    -11
    8   10   SS     -4
    8   10   SE    -11
    8   10   ES     -9
    8   10   EE      0
    9   16   SS     -4
    9   16   SE      4
    9   16   ES     -9
    9   16   EE      5
   10   14   SS      4
   10   14   SE     11
   10   14   ES    -12
   10   14   EE     -4
   10   18   SS      8
   10   18   SE     11
   10   18   ES     -4
   10   18   EE      8
   10   21   SS     -7
   10   21   SE      5
   10   21   ES      3
   10   21   EE      3
   11   13   SS     -5
   11   13   SE      4
   11   13   ES     -6
   11   13   EE      0
   11   15   SS     10
   11   15   SE     12
   11   15   ES     -6
   11   15   EE      4
   11   17   SS      8
   11   17   SE    -10
   11   17   ES      0
   11   17   EE     -4
   12   15   SS     -5
   12   15   SE     -8
   12   15   ES      9
   12   15   EE    -10
   12   19   SS     -8
   12   19   SE     10
   12   19   ES      0
   12   19   EE      7
   13   19   SS      9
   13   19   SE     -3
   13   19   ES     11
   13   19   EE     -7
   14   20   SS      4
   14   20   SE      6
   14   20   ES      8
   14   20   EE      9
   15   21   SS      9
   15   21   SE     11
   15   21   ES     -3
   15   21   EE      1
   16   18   SS     -3
   16   18   SE     -7
   16   18   ES    -12
   16   18   EE     -5
   16   21   SS      1
   16   21   SE     12
   16   21   ES     10
   16   21   EE     -8
   17   20   SS     -1
   17   20   SE     11
   17   20   ES     11
   17   20   EE      4
   18   19   SS      1
   18   19   SE     -6
   18   19   ES     -9
   18   19   EE     -3
   19   22   SS     12
   19   22   SE     -4
   19   22   ES    -10
   19   22   EE      2
   20   22   SS    -11
   20   22   SE      0
   20   22   ES     -3
   20   22   EE      8
   21   22   SS      0
   21   22   SE     -7
   21   22   ES     -1
   21   22   EE     12
************************************************************************
